\ENCODING=ISO-8859-1
\Problem name: ilog.cplex

Minimize
 obj1: 98316 x1 + 109847 x2 + 97002 x3 + 102720 x4 + 100098 x5 + 90323 x6
       + 101250 x7 + 108709 x8 + 109189 x9 + 106158 x10 + 106399 x11
       + 97326 x12 + 92337 x13 + 96849 x14 + 93680 x15 + 95785 x16 + 94421 x17
       + 93760 x18 + 95218 x19 + 100790 x20 + 99249 x21 + 92419 x22
       + 101367 x23 + 104964 x24 + 109077 x25 + 91951 x26 + 93868 x27
       + 103747 x28 + 95906 x29 + 98263 x30 + 95657 x31 + 107489 x32
       + 94530 x33 + 91514 x34 + 90344 x35 + 105253 x36 + 99819 x37
       + 102970 x38 + 92217 x39 + 99144 x40 + 98873 x41 + 91492 x42
       + 101081 x43 + 91033 x44 + 92436 x45 + 95735 x46 + 95337 x47 + 97095 x48
       + 99379 x49 + 104546 x50 + 95101 x51 + 107791 x52 + 102404 x53
       + 108975 x54 + 95989 x55 + 108633 x56 + 94463 x57 + 109582 x58
       + 100789 x59 + 101939 x60 + 97053 x61 + 93664 x62 + 106546 x63
       + 96468 x64 + 98057 x65 + 95627 x66 + 101175 x67 + 92788 x68
       + 109293 x69 + 92869 x70 + 93943 x71 + 103152 x72 + 103222 x73
       + 108323 x74 + 94004 x75 + 98709 x76 + 106154 x77 + 99628 x78
       + 93392 x79 + 102314 x80 + 104060 x81 + 106386 x82 + 102911 x83
       + 100518 x84 + 96942 x85 + 102622 x86 + 102049 x87 + 109291 x88
       + 108196 x89 + 92844 x90 + 97342 x91 + 94612 x92 + 96555 x93 + 96962 x94
       + 97533 x95 + 101246 x96 + 109871 x97 + 91881 x98 + 108434 x99
       + 100887 x100 + 94292 x101 + 90471 x102 + 94258 x103 + 98443 x104
       + 91107 x105 + 104018 x106 + 99045 x107 + 96831 x108 + 105803 x109
       + 107813 x110 + 90762 x111 + 106298 x112 + 108463 x113 + 108421 x114
       + 103138 x115 + 98122 x116 + 95130 x117 + 100527 x118 + 98144 x119
       + 96859 x120 + 93996 x121 + 91345 x122 + 95506 x123 + 107849 x124
       + 100920 x125 + 98846 x126 + 106980 x127 + 106450 x128 + 100609 x129
       + 106863 x130 + 108978 x131 + 90996 x132 + 98235 x133 + 98147 x134
       + 105928 x135 + 102255 x136 + 100354 x137 + 95024 x138 + 91120 x139
       + 93599 x140 + 103691 x141 + 96569 x142 + 101824 x143 + 98149 x144
       + 95708 x145 + 91067 x146 + 91113 x147 + 101827 x148 + 101795 x149
       + 103021 x150 + 105068 x151 + 91020 x152 + 95737 x153 + 90709 x154
       + 106932 x155 + 94789 x156 + 94844 x157 + 101456 x158 + 105863 x159
       + 93407 x160 + 92793 x161 + 90630 x162 + 106052 x163 + 103124 x164
       + 96016 x165 + 95271 x166 + 108065 x167 + 102258 x168 + 101215 x169
       + 102983 x170 + 93642 x171 + 103268 x172 + 95995 x173 + 103238 x174
       + 106005 x175 + 99156 x176 + 108241 x177 + 93652 x178 + 91374 x179
       + 100544 x180 + 105345 x181 + 107807 x182 + 103429 x183 + 101668 x184
       + 93385 x185 + 98431 x186 + 99279 x187 + 91068 x188 + 95859 x189
       + 102580 x190 + 92774 x191 + 95883 x192 + 101763 x193 + 93902 x194
       + 99062 x195 + 97418 x196 + 103635 x197 + 91170 x198 + 102854 x199
       + 100080 x200 + 95769 x201 + 109217 x202 + 95679 x203 + 98783 x204
       + 101452 x205 + 102734 x206 + 101156 x207 + 98557 x208 + 98955 x209
       + 102367 x210 + 90478 x211 + 102967 x212 + 92852 x213 + 91016 x214
       + 103107 x215 + 108630 x216 + 104892 x217 + 104067 x218 + 102016 x219
       + 90985 x220 + 101519 x221 + 92295 x222 + 97122 x223 + 102779 x224
       + 104835 x225 + 103307 x226 + 100338 x227 + 101194 x228 + 106726 x229
       + 107463 x230 + 91287 x231 + 101738 x232 + 90910 x233 + 91256 x234
       + 93037 x235 + 101886 x236 + 108307 x237 + 98797 x238 + 103206 x239
       + 92960 x240 + 107377 x241 + 100376 x242 + 97323 x243 + 104820 x244
       + 93021 x245 + 105960 x246 + 98582 x247 + 104713 x248 + 95081 x249
       + 101077 x250 + 102692 x251 + 100862 x252 + 104168 x253 + 103536 x254
       + 93471 x255 + 107526 x256 + 103253 x257 + 97150 x258 + 94282 x259
       + 100140 x260 + 100817 x261 + 90106 x262 + 96816 x263 + 107436 x264
       + 102263 x265 + 105700 x266 + 100880 x267 + 94516 x268 + 101538 x269
       + 90727 x270 + 104231 x271 + 99195 x272 + 93499 x273 + 94464 x274
       + 96746 x275 + 102133 x276 + 108637 x277 + 91624 x278 + 95245 x279
       + 92828 x280 + 100259 x281 + 101146 x282 + 100505 x283 + 107067 x284
       + 97207 x285 + 96484 x286 + 103769 x287 + 90440 x288 + 108828 x289
       + 102426 x290 + 96485 x291 + 107303 x292 + 93115 x293 + 108527 x294
       + 104077 x295 + 104856 x296 + 93840 x297 + 99838 x298 + 92215 x299
       + 97974 x300 + 102022 x301 + 100655 x302 + 99114 x303 + 102177 x304
       + 108083 x305 + 92290 x306 + 102106 x307 + 106372 x308 + 107850 x309
       + 98556 x310 + 94934 x311 + 92861 x312 + 93910 x313 + 93531 x314
       + 99128 x315 + 91003 x316 + 105224 x317 + 103616 x318 + 98047 x319
       + 109231 x320 + 97293 x321 + 109739 x322 + 104027 x323 + 101894 x324
       + 91872 x325 + 95043 x326 + 106700 x327 + 107659 x328 + 102006 x329
       + 95721 x330 + 102140 x331 + 105148 x332 + 94791 x333 + 93849 x334
       + 109348 x335 + 105417 x336 + 106419 x337 + 102726 x338 + 103132 x339
       + 95422 x340 + 101950 x341 + 97658 x342 + 90579 x343 + 101799 x344
       + 95661 x345 + 98073 x346 + 92075 x347 + 100089 x348 + 96955 x349
       + 90484 x350 + 96043 x351 + 91070 x352 + 102013 x353 + 107390 x354
       + 91315 x355 + 106594 x356 + 91516 x357 + 102940 x358 + 106356 x359
       + 95838 x360 + 108532 x361 + 102537 x362 + 90323 x363 + 103790 x364
       + 103067 x365 + 106399 x366 + 91567 x367 + 96755 x368 + 99222 x369
       + 101167 x370 + 106525 x371 + 100071 x372 + 104600 x373 + 107547 x374
       + 109711 x375 + 98767 x376 + 90017 x377 + 95125 x378 + 105739 x379
       + 109195 x380 + 94953 x381 + 104140 x382 + 103514 x383 + 99654 x384
       + 96270 x385 + 99390 x386 + 102639 x387 + 103702 x388 + 100375 x389
       + 92371 x390 + 102511 x391 + 91081 x392 + 102321 x393 + 104333 x394
       + 95765 x395 + 98108 x396 + 99255 x397 + 105169 x398 + 109394 x399
       + 91900 x400 + 90926 x401 + 99118 x402 + 95618 x403 + 106914 x404
       + 108157 x405 + 104807 x406 + 94134 x407 + 100396 x408 + 102509 x409
       + 105951 x410 + 93691 x411 + 106674 x412 + 99238 x413 + 98802 x414
       + 106661 x415 + 96054 x416 + 90638 x417 + 90941 x418 + 109518 x419
       + 106130 x420 + 94641 x421 + 103723 x422 + 96277 x423 + 108085 x424
       + 90817 x425 + 104710 x426 + 101376 x427 + 105141 x428 + 90792 x429
       + 100945 x430 + 99920 x431 + 100283 x432 + 93237 x433 + 94116 x434
       + 91608 x435 + 98384 x436 + 102381 x437 + 109464 x438 + 98776 x439
       + 106451 x440 + 93345 x441 + 101701 x442 + 98686 x443 + 104969 x444
       + 107666 x445 + 93256 x446 + 105536 x447 + 103178 x448 + 97990 x449
       + 92865 x450 + 95782 x451 + 99481 x452 + 106180 x453 + 94082 x454
       + 100850 x455 + 93778 x456 + 90491 x457 + 100376 x458 + 94211 x459
       + 90063 x460 + 104037 x461 + 91729 x462 + 104594 x463 + 92800 x464
       + 98700 x465 + 109441 x466 + 90941 x467 + 94726 x468 + 108144 x469
       + 98803 x470 + 99557 x471 + 108983 x472 + 109668 x473 + 105097 x474
       + 104991 x475 + 101639 x476 + 102723 x477 + 108878 x478 + 106580 x479
       + 91171 x480 + 93825 x481 + 103478 x482 + 90843 x483 + 93057 x484
       + 103705 x485 + 109512 x486 + 108860 x487 + 104863 x488 + 109270 x489
       + 108752 x490 + 97325 x491 + 90011 x492 + 100322 x493 + 102805 x494
       + 92121 x495 + 106887 x496 + 108965 x497 + 100873 x498 + 104089 x499
       + 204408 x500 + 398975 x501 + 398030 x502 + 426697 x503 + 418193 x504
       + 396051 x505 + 363045 x506 + 386202 x507 + 389153 x508 + 414808 x509
       + 374348 x510 + 387514 x511 + 419215 x512 + 363026 x513 + 406903 x514
       + 422795 x515 + 364994 x516 + 411465 x517 + 381232 x518 + 380666 x519
       + 378118 x520 + 429521 x521 + 374119 x522 + 379142 x523 + 429736 x524
       + 438141 x525 + 406831 x526 + 367939 x527 + 365266 x528 + 400628 x529
       + 401306 x530 + 382075 x531 + 370786 x532 + 416468 x533 + 403568 x534
       + 426931 x535 + 385056 x536 + 375208 x537 + 429954 x538 + 420599 x539
       + 391258 x540 + 406927 x541 + 375586 x542 + 392580 x543 + 390088 x544
       + 432735 x545 + 375839 x546 + 438585 x547 + 390923 x548 + 373238 x549
       + 547537 x550
Subject To
 c1:   x3 - x12 + x24 + x30  = 0
 c2:   x53 - x62 + x74 + x80  = 0
 c3:   x103 - x112 + x124 + x130  = 0
 c4:   x153 - x162 + x174 + x180  = -1
 c5:   x203 - x212 + x224 + x230  = 0
 c6:   x253 - x262 + x274 + x280  = -1
 c7:   x303 - x312 + x324 + x330  = 0
 c8:   x353 - x362 + x374 + x380  = 1
 c9:   x403 - x412 + x424 + x430  = 1
 c10:  x453 - x462 + x474 + x480  = 0
 c11:  - x6 + x16 - x26 + x34 + x37 - x38 - x39 + x45 - x46 + x48  = 0
 c12:  - x56 + x66 - x76 + x84 + x87 - x88 - x89 + x95 - x96 + x98  = 0
 c13:  - x106 + x116 - x126 + x134 + x137 - x138 - x139 + x145 - x146 + x148
        = 0
 c14:  - x156 + x166 - x176 + x184 + x187 - x188 - x189 + x195 - x196 + x198
        = 0
 c15:  - x206 + x216 - x226 + x234 + x237 - x238 - x239 + x245 - x246 + x248
        = -1
 c16:  - x256 + x266 - x276 + x284 + x287 - x288 - x289 + x295 - x296 + x298
        = 0
 c17:  - x306 + x316 - x326 + x334 + x337 - x338 - x339 + x345 - x346 + x348
        = 1
 c18:  - x356 + x366 - x376 + x384 + x387 - x388 - x389 + x395 - x396 + x398
        = 0
 c19:  - x406 + x416 - x426 + x434 + x437 - x438 - x439 + x445 - x446 + x448
        = 0
 c20:  - x456 + x466 - x476 + x484 + x487 - x488 - x489 + x495 - x496 + x498
        = -1
 c21:  - x2 + x15 - x18 + x32 - x34 - x35 - x43 + x44  = 0
 c22:  - x52 + x65 - x68 + x82 - x84 - x85 - x93 + x94  = -1
 c23:  - x102 + x115 - x118 + x132 - x134 - x135 - x143 + x144  = 0
 c24:  - x152 + x165 - x168 + x182 - x184 - x185 - x193 + x194  = 0
 c25:  - x202 + x215 - x218 + x232 - x234 - x235 - x243 + x244  = 0
 c26:  - x252 + x265 - x268 + x282 - x284 - x285 - x293 + x294  = 0
 c27:  - x302 + x315 - x318 + x332 - x334 - x335 - x343 + x344  = 0
 c28:  - x352 + x365 - x368 + x382 - x384 - x385 - x393 + x394  = 0
 c29:  - x402 + x415 - x418 + x432 - x434 - x435 - x443 + x444  = 0
 c30:  - x452 + x465 - x468 + x482 - x484 - x485 - x493 + x494  = 0
 c31:  x2 + x9 - x14 - x16 + x21 + x25 + x38 + x49  = 0
 c32:  x52 + x59 - x64 - x66 + x71 + x75 + x88 + x99  = 0
 c33:  x102 + x109 - x114 - x116 + x121 + x125 + x138 + x149  = 0
 c34:  x152 + x159 - x164 - x166 + x171 + x175 + x188 + x199  = 1
 c35:  x202 + x209 - x214 - x216 + x221 + x225 + x238 + x249  = 0
 c36:  x252 + x259 - x264 - x266 + x271 + x275 + x288 + x299  = 0
 c37:  x302 + x309 - x314 - x316 + x321 + x325 + x338 + x349  = 0
 c38:  x352 + x359 - x364 - x366 + x371 + x375 + x388 + x399  = 0
 c39:  x402 + x409 - x414 - x416 + x421 + x425 + x438 + x449  = 0
 c40:  x452 + x459 - x464 - x466 + x471 + x475 + x488 + x499  = 0
 c41:  x1 - x8 + x18 - x24 - x28 - x29 - x45 + x46  = 0
 c42:  x51 - x58 + x68 - x74 - x78 - x79 - x95 + x96  = 0
 c43:  x101 - x108 + x118 - x124 - x128 - x129 - x145 + x146  = 1
 c44:  x151 - x158 + x168 - x174 - x178 - x179 - x195 + x196  = 0
 c45:  x201 - x208 + x218 - x224 - x228 - x229 - x245 + x246  = 0
 c46:  x251 - x258 + x268 - x274 - x278 - x279 - x295 + x296  = 0
 c47:  x301 - x308 + x318 - x324 - x328 - x329 - x345 + x346  = 0
 c48:  x351 - x358 + x368 - x374 - x378 - x379 - x395 + x396  = 0
 c49:  x401 - x408 + x418 - x424 - x428 - x429 - x445 + x446  = 0
 c50:  x451 - x458 + x468 - x474 - x478 - x479 - x495 + x496  = 0
 c51:  - x3 + x8 + x27 - x31 + x41  = 0
 c52:  - x53 + x58 + x77 - x81 + x91  = 0
 c53:  - x103 + x108 + x127 - x131 + x141  = 0
 c54:  - x153 + x158 + x177 - x181 + x191  = 0
 c55:  - x203 + x208 + x227 - x231 + x241  = 0
 c56:  - x253 + x258 + x277 - x281 + x291  = 0
 c57:  - x303 + x308 + x327 - x331 + x341  = 0
 c58:  - x353 + x358 + x377 - x381 + x391  = 0
 c59:  - x403 + x408 + x427 - x431 + x441  = 0
 c60:  - x453 + x458 + x477 - x481 + x491  = 0
 c61:  - x1 - x9 + x10 - x19 - x22 + x33 + x35 + x47 - x48 + x50  = 0
 c62:  - x51 - x59 + x60 - x69 - x72 + x83 + x85 + x97 - x98 + x100  = 0
 c63:  - x101 - x109 + x110 - x119 - x122 + x133 + x135 + x147 - x148 + x150
        = 0
 c64:  - x151 - x159 + x160 - x169 - x172 + x183 + x185 + x197 - x198 + x200
        = 0
 c65:  - x201 - x209 + x210 - x219 - x222 + x233 + x235 + x247 - x248 + x250
        = 0
 c66:  - x251 - x259 + x260 - x269 - x272 + x283 + x285 + x297 - x298 + x300
        = 1
 c67:  - x301 - x309 + x310 - x319 - x322 + x333 + x335 + x347 - x348 + x350
        = 0
 c68:  - x351 - x359 + x360 - x369 - x372 + x383 + x385 + x397 - x398 + x400
        = 0
 c69:  - x401 - x409 + x410 - x419 - x422 + x433 + x435 + x447 - x448 + x450
        = 0
 c70:  - x451 - x459 + x460 - x469 - x472 + x483 + x485 + x497 - x498 + x500
        = 0
 c71:  x6 - x20 - x33 + x40 + x43  = 0
 c72:  x56 - x70 - x83 + x90 + x93  = 0
 c73:  x106 - x120 - x133 + x140 + x143  = 0
 c74:  x156 - x170 - x183 + x190 + x193  = 0
 c75:  x206 - x220 - x233 + x240 + x243  = 0
 c76:  x256 - x270 - x283 + x290 + x293  = 0
 c77:  x306 - x320 - x333 + x340 + x343  = 0
 c78:  x356 - x370 - x383 + x390 + x393  = 0
 c79:  x406 - x420 - x433 + x440 + x443  = 0
 c80:  x456 - x470 - x483 + x490 + x493  = 0
 c81:  - x17 - x23 + x26 - x27 + x29  = 0
 c82:  - x67 - x73 + x76 - x77 + x79  = 0
 c83:  - x117 - x123 + x126 - x127 + x129  = 0
 c84:  - x167 - x173 + x176 - x177 + x179  = 0
 c85:  - x217 - x223 + x226 - x227 + x229  = 1
 c86:  - x267 - x273 + x276 - x277 + x279  = 0
 c87:  - x317 - x323 + x326 - x327 + x329  = 0
 c88:  - x367 - x373 + x376 - x377 + x379  = -1
 c89:  - x417 - x423 + x426 - x427 + x429  = 0
 c90:  - x467 - x473 + x476 - x477 + x479  = 1
 c91:  - x5 + x7 - x25 + x28 - x30 + x39 + x42 - x44  = -1
 c92:  - x55 + x57 - x75 + x78 - x80 + x89 + x92 - x94  = 0
 c93:  - x105 + x107 - x125 + x128 - x130 + x139 + x142 - x144  = 0
 c94:  - x155 + x157 - x175 + x178 - x180 + x189 + x192 - x194  = 0
 c95:  - x205 + x207 - x225 + x228 - x230 + x239 + x242 - x244  = 0
 c96:  - x255 + x257 - x275 + x278 - x280 + x289 + x292 - x294  = 0
 c97:  - x305 + x307 - x325 + x328 - x330 + x339 + x342 - x344  = -1
 c98:  - x355 + x357 - x375 + x378 - x380 + x389 + x392 - x394  = 0
 c99:  - x405 + x407 - x425 + x428 - x430 + x439 + x442 - x444  = 0
 c100: - x455 + x457 - x475 + x478 - x480 + x489 + x492 - x494  = 0
 c101: x5 - x15 - x37 - x41  = 0
 c102: x55 - x65 - x87 - x91  = 0
 c103: x105 - x115 - x137 - x141  = 0
 c104: x155 - x165 - x187 - x191  = 0
 c105: x205 - x215 - x237 - x241  = 0
 c106: x255 - x265 - x287 - x291  = 0
 c107: x305 - x315 - x337 - x341  = 0
 c108: x355 - x365 - x387 - x391  = 0
 c109: x405 - x415 - x437 - x441  = 0
 c110: x455 - x465 - x487 - x491  = 0
 c111: x4 + x11 + x19 - x32 - x47  = 0
 c112: x54 + x61 + x69 - x82 - x97  = 0
 c113: x104 + x111 + x119 - x132 - x147  = -1
 c114: x154 + x161 + x169 - x182 - x197  = 0
 c115: x204 + x211 + x219 - x232 - x247  = 0
 c116: x254 + x261 + x269 - x282 - x297  = 0
 c117: x304 + x311 + x319 - x332 - x347  = 0
 c118: x354 + x361 + x369 - x382 - x397  = 0
 c119: x404 + x411 + x419 - x432 - x447  = 0
 c120: x454 + x461 + x469 - x482 - x497  = 0
 c121: - x11 - x36 - x49 - x50  = 0
 c122: - x61 - x86 - x99 - x100  = 0
 c123: - x111 - x136 - x149 - x150  = 0
 c124: - x161 - x186 - x199 - x200  = 0
 c125: - x211 - x236 - x249 - x250  = 0
 c126: - x261 - x286 - x299 - x300  = 0
 c127: - x311 - x336 - x349 - x350  = 0
 c128: - x361 - x386 - x399 - x400  = 0
 c129: - x411 - x436 - x449 - x450  = 0
 c130: - x461 - x486 - x499 - x500  = 0
 c131: - x10 + x12 + x13 + x17 + x20 + x31 + x36 - x42  = 1
 c132: - x60 + x62 + x63 + x67 + x70 + x81 + x86 - x92  = 0
 c133: - x110 + x112 + x113 + x117 + x120 + x131 + x136 - x142  = 0
 c134: - x160 + x162 + x163 + x167 + x170 + x181 + x186 - x192  = 0
 c135: - x210 + x212 + x213 + x217 + x220 + x231 + x236 - x242  = 0
 c136: - x260 + x262 + x263 + x267 + x270 + x281 + x286 - x292  = 0
 c137: - x310 + x312 + x313 + x317 + x320 + x331 + x336 - x342  = 0
 c138: - x360 + x362 + x363 + x367 + x370 + x381 + x386 - x392  = 0
 c139: - x410 + x412 + x413 + x417 + x420 + x431 + x436 - x442  = 0
 c140: - x460 + x462 + x463 + x467 + x470 + x481 + x486 - x492  = 0
 c141: - x4 - x7 - x13 + x14 - x21 + x22 + x23 - x40  = 0
 c142: - x54 - x57 - x63 + x64 - x71 + x72 + x73 - x90  = 1
 c143: - x104 - x107 - x113 + x114 - x121 + x122 + x123 - x140  = 0
 c144: - x154 - x157 - x163 + x164 - x171 + x172 + x173 - x190  = 0
 c145: - x204 - x207 - x213 + x214 - x221 + x222 + x223 - x240  = 0
 c146: - x254 - x257 - x263 + x264 - x271 + x272 + x273 - x290  = 0
 c147: - x304 - x307 - x313 + x314 - x321 + x322 + x323 - x340  = 0
 c148: - x354 - x357 - x363 + x364 - x371 + x372 + x373 - x390  = 0
 c149: - x404 - x407 - x413 + x414 - x421 + x422 + x423 - x440  = -1
 c150: - x454 - x457 - x463 + x464 - x471 + x472 + x473 - x490  = 0
 c151: 4 x1 + 4 x51 + 4 x101 + 4 x151 + 4 x201 + 4 x251 + 4 x301 + 4 x351
       + 4 x401 + 4 x451 - 20 x501 <= 0
 c152: 4 x2 + 4 x52 + 4 x102 + 4 x152 + 4 x202 + 4 x252 + 4 x302 + 4 x352
       + 4 x402 + 4 x452 - 22 x502 <= 0
 c153: 4 x3 + 4 x53 + 4 x103 + 4 x153 + 4 x203 + 4 x253 + 4 x303 + 4 x353
       + 4 x403 + 4 x453 - 21 x503 <= 0
 c154: 4 x4 + 4 x54 + 4 x104 + 4 x154 + 4 x204 + 4 x254 + 4 x304 + 4 x354
       + 4 x404 + 4 x454 - 19 x504 <= 0
 c155: 4 x5 + 4 x55 + 4 x105 + 4 x155 + 4 x205 + 4 x255 + 4 x305 + 4 x355
       + 4 x405 + 4 x455 - 19 x505 <= 0
 c156: 4 x6 + 4 x56 + 4 x106 + 4 x156 + 4 x206 + 4 x256 + 4 x306 + 4 x356
       + 4 x406 + 4 x456 - 19 x506 <= 0
 c157: 4 x7 + 4 x57 + 4 x107 + 4 x157 + 4 x207 + 4 x257 + 4 x307 + 4 x357
       + 4 x407 + 4 x457 - 18 x507 <= 0
 c158: 4 x8 + 4 x58 + 4 x108 + 4 x158 + 4 x208 + 4 x258 + 4 x308 + 4 x358
       + 4 x408 + 4 x458 - 21 x508 <= 0
 c159: 4 x9 + 4 x59 + 4 x109 + 4 x159 + 4 x209 + 4 x259 + 4 x309 + 4 x359
       + 4 x409 + 4 x459 - 21 x509 <= 0
 c160: 4 x10 + 4 x60 + 4 x110 + 4 x160 + 4 x210 + 4 x260 + 4 x310 + 4 x360
       + 4 x410 + 4 x460 - 18 x510 <= 0
 c161: 4 x11 + 4 x61 + 4 x111 + 4 x161 + 4 x211 + 4 x261 + 4 x311 + 4 x361
       + 4 x411 + 4 x461 - 21 x511 <= 0
 c162: 4 x12 + 4 x62 + 4 x112 + 4 x162 + 4 x212 + 4 x262 + 4 x312 + 4 x362
       + 4 x412 + 4 x462 - 18 x512 <= 0
 c163: 4 x13 + 4 x63 + 4 x113 + 4 x163 + 4 x213 + 4 x263 + 4 x313 + 4 x363
       + 4 x413 + 4 x463 - 20 x513 <= 0
 c164: 4 x14 + 4 x64 + 4 x114 + 4 x164 + 4 x214 + 4 x264 + 4 x314 + 4 x364
       + 4 x414 + 4 x464 - 21 x514 <= 0
 c165: 4 x15 + 4 x65 + 4 x115 + 4 x165 + 4 x215 + 4 x265 + 4 x315 + 4 x365
       + 4 x415 + 4 x465 - 19 x515 <= 0
 c166: 4 x16 + 4 x66 + 4 x116 + 4 x166 + 4 x216 + 4 x266 + 4 x316 + 4 x366
       + 4 x416 + 4 x466 - 19 x516 <= 0
 c167: 4 x17 + 4 x67 + 4 x117 + 4 x167 + 4 x217 + 4 x267 + 4 x317 + 4 x367
       + 4 x417 + 4 x467 - 19 x517 <= 0
 c168: 4 x18 + 4 x68 + 4 x118 + 4 x168 + 4 x218 + 4 x268 + 4 x318 + 4 x368
       + 4 x418 + 4 x468 - 18 x518 <= 0
 c169: 4 x19 + 4 x69 + 4 x119 + 4 x169 + 4 x219 + 4 x269 + 4 x319 + 4 x369
       + 4 x419 + 4 x469 - 22 x519 <= 0
 c170: 4 x20 + 4 x70 + 4 x120 + 4 x170 + 4 x220 + 4 x270 + 4 x320 + 4 x370
       + 4 x420 + 4 x470 - 18 x520 <= 0
 c171: 4 x21 + 4 x71 + 4 x121 + 4 x171 + 4 x221 + 4 x271 + 4 x321 + 4 x371
       + 4 x421 + 4 x471 - 19 x521 <= 0
 c172: 4 x22 + 4 x72 + 4 x122 + 4 x172 + 4 x222 + 4 x272 + 4 x322 + 4 x372
       + 4 x422 + 4 x472 - 19 x522 <= 0
 c173: 4 x23 + 4 x73 + 4 x123 + 4 x173 + 4 x223 + 4 x273 + 4 x323 + 4 x373
       + 4 x423 + 4 x473 - 21 x523 <= 0
 c174: 4 x24 + 4 x74 + 4 x124 + 4 x174 + 4 x224 + 4 x274 + 4 x324 + 4 x374
       + 4 x424 + 4 x474 - 22 x524 <= 0
 c175: 4 x25 + 4 x75 + 4 x125 + 4 x175 + 4 x225 + 4 x275 + 4 x325 + 4 x375
       + 4 x425 + 4 x475 - 20 x525 <= 0
 c176: 4 x26 + 4 x76 + 4 x126 + 4 x176 + 4 x226 + 4 x276 + 4 x326 + 4 x376
       + 4 x426 + 4 x476 - 22 x526 <= 0
 c177: 4 x27 + 4 x77 + 4 x127 + 4 x177 + 4 x227 + 4 x277 + 4 x327 + 4 x377
       + 4 x427 + 4 x477 - 20 x527 <= 0
 c178: 4 x28 + 4 x78 + 4 x128 + 4 x178 + 4 x228 + 4 x278 + 4 x328 + 4 x378
       + 4 x428 + 4 x478 - 19 x528 <= 0
 c179: 4 x29 + 4 x79 + 4 x129 + 4 x179 + 4 x229 + 4 x279 + 4 x329 + 4 x379
       + 4 x429 + 4 x479 - 22 x529 <= 0
 c180: 4 x30 + 4 x80 + 4 x130 + 4 x180 + 4 x230 + 4 x280 + 4 x330 + 4 x380
       + 4 x430 + 4 x480 - 22 x530 <= 0
 c181: 4 x31 + 4 x81 + 4 x131 + 4 x181 + 4 x231 + 4 x281 + 4 x331 + 4 x381
       + 4 x431 + 4 x481 - 21 x531 <= 0
 c182: 4 x32 + 4 x82 + 4 x132 + 4 x182 + 4 x232 + 4 x282 + 4 x332 + 4 x382
       + 4 x432 + 4 x482 - 21 x532 <= 0
 c183: 4 x33 + 4 x83 + 4 x133 + 4 x183 + 4 x233 + 4 x283 + 4 x333 + 4 x383
       + 4 x433 + 4 x483 - 22 x533 <= 0
 c184: 4 x34 + 4 x84 + 4 x134 + 4 x184 + 4 x234 + 4 x284 + 4 x334 + 4 x384
       + 4 x434 + 4 x484 - 19 x534 <= 0
 c185: 4 x35 + 4 x85 + 4 x135 + 4 x185 + 4 x235 + 4 x285 + 4 x335 + 4 x385
       + 4 x435 + 4 x485 - 21 x535 <= 0
 c186: 4 x36 + 4 x86 + 4 x136 + 4 x186 + 4 x236 + 4 x286 + 4 x336 + 4 x386
       + 4 x436 + 4 x486 - 19 x536 <= 0
 c187: 4 x37 + 4 x87 + 4 x137 + 4 x187 + 4 x237 + 4 x287 + 4 x337 + 4 x387
       + 4 x437 + 4 x487 - 21 x537 <= 0
 c188: 4 x38 + 4 x88 + 4 x138 + 4 x188 + 4 x238 + 4 x288 + 4 x338 + 4 x388
       + 4 x438 + 4 x488 - 19 x538 <= 0
 c189: 4 x39 + 4 x89 + 4 x139 + 4 x189 + 4 x239 + 4 x289 + 4 x339 + 4 x389
       + 4 x439 + 4 x489 - 22 x539 <= 0
 c190: 4 x40 + 4 x90 + 4 x140 + 4 x190 + 4 x240 + 4 x290 + 4 x340 + 4 x390
       + 4 x440 + 4 x490 - 18 x540 <= 0
 c191: 4 x41 + 4 x91 + 4 x141 + 4 x191 + 4 x241 + 4 x291 + 4 x341 + 4 x391
       + 4 x441 + 4 x491 - 22 x541 <= 0
 c192: 4 x42 + 4 x92 + 4 x142 + 4 x192 + 4 x242 + 4 x292 + 4 x342 + 4 x392
       + 4 x442 + 4 x492 - 19 x542 <= 0
 c193: 4 x43 + 4 x93 + 4 x143 + 4 x193 + 4 x243 + 4 x293 + 4 x343 + 4 x393
       + 4 x443 + 4 x493 - 19 x543 <= 0
 c194: 4 x44 + 4 x94 + 4 x144 + 4 x194 + 4 x244 + 4 x294 + 4 x344 + 4 x394
       + 4 x444 + 4 x494 - 18 x544 <= 0
 c195: 4 x45 + 4 x95 + 4 x145 + 4 x195 + 4 x245 + 4 x295 + 4 x345 + 4 x395
       + 4 x445 + 4 x495 - 18 x545 <= 0
 c196: 4 x46 + 4 x96 + 4 x146 + 4 x196 + 4 x246 + 4 x296 + 4 x346 + 4 x396
       + 4 x446 + 4 x496 - 18 x546 <= 0
 c197: 4 x47 + 4 x97 + 4 x147 + 4 x197 + 4 x247 + 4 x297 + 4 x347 + 4 x397
       + 4 x447 + 4 x497 - 18 x547 <= 0
 c198: 4 x48 + 4 x98 + 4 x148 + 4 x198 + 4 x248 + 4 x298 + 4 x348 + 4 x398
       + 4 x448 + 4 x498 - 22 x548 <= 0
 c199: 4 x49 + 4 x99 + 4 x149 + 4 x199 + 4 x249 + 4 x299 + 4 x349 + 4 x399
       + 4 x449 + 4 x499 - 20 x549 <= 0
 c200: 4 x50 + 4 x100 + 4 x150 + 4 x200 + 4 x250 + 4 x300 + 4 x350 + 4 x400
       + 4 x450 + 4 x500 - 24 x550 <= 0
Bounds
 0 <= x1 <= 1
 0 <= x2 <= 1
 0 <= x3 <= 1
 0 <= x4 <= 1
 0 <= x5 <= 1
 0 <= x6 <= 1
 0 <= x7 <= 1
 0 <= x8 <= 1
 0 <= x9 <= 1
 0 <= x10 <= 1
 0 <= x11 <= 1
 0 <= x12 <= 1
 0 <= x13 <= 1
 0 <= x14 <= 1
 0 <= x15 <= 1
 0 <= x16 <= 1
 0 <= x17 <= 1
 0 <= x18 <= 1
 0 <= x19 <= 1
 0 <= x20 <= 1
 0 <= x21 <= 1
 0 <= x22 <= 1
 0 <= x23 <= 1
 0 <= x24 <= 1
 0 <= x25 <= 1
 0 <= x26 <= 1
 0 <= x27 <= 1
 0 <= x28 <= 1
 0 <= x29 <= 1
 0 <= x30 <= 1
 0 <= x31 <= 1
 0 <= x32 <= 1
 0 <= x33 <= 1
 0 <= x34 <= 1
 0 <= x35 <= 1
 0 <= x36 <= 1
 0 <= x37 <= 1
 0 <= x38 <= 1
 0 <= x39 <= 1
 0 <= x40 <= 1
 0 <= x41 <= 1
 0 <= x42 <= 1
 0 <= x43 <= 1
 0 <= x44 <= 1
 0 <= x45 <= 1
 0 <= x46 <= 1
 0 <= x47 <= 1
 0 <= x48 <= 1
 0 <= x49 <= 1
 0 <= x50 <= 1
 0 <= x51 <= 1
 0 <= x52 <= 1
 0 <= x53 <= 1
 0 <= x54 <= 1
 0 <= x55 <= 1
 0 <= x56 <= 1
 0 <= x57 <= 1
 0 <= x58 <= 1
 0 <= x59 <= 1
 0 <= x60 <= 1
 0 <= x61 <= 1
 0 <= x62 <= 1
 0 <= x63 <= 1
 0 <= x64 <= 1
 0 <= x65 <= 1
 0 <= x66 <= 1
 0 <= x67 <= 1
 0 <= x68 <= 1
 0 <= x69 <= 1
 0 <= x70 <= 1
 0 <= x71 <= 1
 0 <= x72 <= 1
 0 <= x73 <= 1
 0 <= x74 <= 1
 0 <= x75 <= 1
 0 <= x76 <= 1
 0 <= x77 <= 1
 0 <= x78 <= 1
 0 <= x79 <= 1
 0 <= x80 <= 1
 0 <= x81 <= 1
 0 <= x82 <= 1
 0 <= x83 <= 1
 0 <= x84 <= 1
 0 <= x85 <= 1
 0 <= x86 <= 1
 0 <= x87 <= 1
 0 <= x88 <= 1
 0 <= x89 <= 1
 0 <= x90 <= 1
 0 <= x91 <= 1
 0 <= x92 <= 1
 0 <= x93 <= 1
 0 <= x94 <= 1
 0 <= x95 <= 1
 0 <= x96 <= 1
 0 <= x97 <= 1
 0 <= x98 <= 1
 0 <= x99 <= 1
 0 <= x100 <= 1
 0 <= x101 <= 1
 0 <= x102 <= 1
 0 <= x103 <= 1
 0 <= x104 <= 1
 0 <= x105 <= 1
 0 <= x106 <= 1
 0 <= x107 <= 1
 0 <= x108 <= 1
 0 <= x109 <= 1
 0 <= x110 <= 1
 0 <= x111 <= 1
 0 <= x112 <= 1
 0 <= x113 <= 1
 0 <= x114 <= 1
 0 <= x115 <= 1
 0 <= x116 <= 1
 0 <= x117 <= 1
 0 <= x118 <= 1
 0 <= x119 <= 1
 0 <= x120 <= 1
 0 <= x121 <= 1
 0 <= x122 <= 1
 0 <= x123 <= 1
 0 <= x124 <= 1
 0 <= x125 <= 1
 0 <= x126 <= 1
 0 <= x127 <= 1
 0 <= x128 <= 1
 0 <= x129 <= 1
 0 <= x130 <= 1
 0 <= x131 <= 1
 0 <= x132 <= 1
 0 <= x133 <= 1
 0 <= x134 <= 1
 0 <= x135 <= 1
 0 <= x136 <= 1
 0 <= x137 <= 1
 0 <= x138 <= 1
 0 <= x139 <= 1
 0 <= x140 <= 1
 0 <= x141 <= 1
 0 <= x142 <= 1
 0 <= x143 <= 1
 0 <= x144 <= 1
 0 <= x145 <= 1
 0 <= x146 <= 1
 0 <= x147 <= 1
 0 <= x148 <= 1
 0 <= x149 <= 1
 0 <= x150 <= 1
 0 <= x151 <= 1
 0 <= x152 <= 1
 0 <= x153 <= 1
 0 <= x154 <= 1
 0 <= x155 <= 1
 0 <= x156 <= 1
 0 <= x157 <= 1
 0 <= x158 <= 1
 0 <= x159 <= 1
 0 <= x160 <= 1
 0 <= x161 <= 1
 0 <= x162 <= 1
 0 <= x163 <= 1
 0 <= x164 <= 1
 0 <= x165 <= 1
 0 <= x166 <= 1
 0 <= x167 <= 1
 0 <= x168 <= 1
 0 <= x169 <= 1
 0 <= x170 <= 1
 0 <= x171 <= 1
 0 <= x172 <= 1
 0 <= x173 <= 1
 0 <= x174 <= 1
 0 <= x175 <= 1
 0 <= x176 <= 1
 0 <= x177 <= 1
 0 <= x178 <= 1
 0 <= x179 <= 1
 0 <= x180 <= 1
 0 <= x181 <= 1
 0 <= x182 <= 1
 0 <= x183 <= 1
 0 <= x184 <= 1
 0 <= x185 <= 1
 0 <= x186 <= 1
 0 <= x187 <= 1
 0 <= x188 <= 1
 0 <= x189 <= 1
 0 <= x190 <= 1
 0 <= x191 <= 1
 0 <= x192 <= 1
 0 <= x193 <= 1
 0 <= x194 <= 1
 0 <= x195 <= 1
 0 <= x196 <= 1
 0 <= x197 <= 1
 0 <= x198 <= 1
 0 <= x199 <= 1
 0 <= x200 <= 1
 0 <= x201 <= 1
 0 <= x202 <= 1
 0 <= x203 <= 1
 0 <= x204 <= 1
 0 <= x205 <= 1
 0 <= x206 <= 1
 0 <= x207 <= 1
 0 <= x208 <= 1
 0 <= x209 <= 1
 0 <= x210 <= 1
 0 <= x211 <= 1
 0 <= x212 <= 1
 0 <= x213 <= 1
 0 <= x214 <= 1
 0 <= x215 <= 1
 0 <= x216 <= 1
 0 <= x217 <= 1
 0 <= x218 <= 1
 0 <= x219 <= 1
 0 <= x220 <= 1
 0 <= x221 <= 1
 0 <= x222 <= 1
 0 <= x223 <= 1
 0 <= x224 <= 1
 0 <= x225 <= 1
 0 <= x226 <= 1
 0 <= x227 <= 1
 0 <= x228 <= 1
 0 <= x229 <= 1
 0 <= x230 <= 1
 0 <= x231 <= 1
 0 <= x232 <= 1
 0 <= x233 <= 1
 0 <= x234 <= 1
 0 <= x235 <= 1
 0 <= x236 <= 1
 0 <= x237 <= 1
 0 <= x238 <= 1
 0 <= x239 <= 1
 0 <= x240 <= 1
 0 <= x241 <= 1
 0 <= x242 <= 1
 0 <= x243 <= 1
 0 <= x244 <= 1
 0 <= x245 <= 1
 0 <= x246 <= 1
 0 <= x247 <= 1
 0 <= x248 <= 1
 0 <= x249 <= 1
 0 <= x250 <= 1
 0 <= x251 <= 1
 0 <= x252 <= 1
 0 <= x253 <= 1
 0 <= x254 <= 1
 0 <= x255 <= 1
 0 <= x256 <= 1
 0 <= x257 <= 1
 0 <= x258 <= 1
 0 <= x259 <= 1
 0 <= x260 <= 1
 0 <= x261 <= 1
 0 <= x262 <= 1
 0 <= x263 <= 1
 0 <= x264 <= 1
 0 <= x265 <= 1
 0 <= x266 <= 1
 0 <= x267 <= 1
 0 <= x268 <= 1
 0 <= x269 <= 1
 0 <= x270 <= 1
 0 <= x271 <= 1
 0 <= x272 <= 1
 0 <= x273 <= 1
 0 <= x274 <= 1
 0 <= x275 <= 1
 0 <= x276 <= 1
 0 <= x277 <= 1
 0 <= x278 <= 1
 0 <= x279 <= 1
 0 <= x280 <= 1
 0 <= x281 <= 1
 0 <= x282 <= 1
 0 <= x283 <= 1
 0 <= x284 <= 1
 0 <= x285 <= 1
 0 <= x286 <= 1
 0 <= x287 <= 1
 0 <= x288 <= 1
 0 <= x289 <= 1
 0 <= x290 <= 1
 0 <= x291 <= 1
 0 <= x292 <= 1
 0 <= x293 <= 1
 0 <= x294 <= 1
 0 <= x295 <= 1
 0 <= x296 <= 1
 0 <= x297 <= 1
 0 <= x298 <= 1
 0 <= x299 <= 1
 0 <= x300 <= 1
 0 <= x301 <= 1
 0 <= x302 <= 1
 0 <= x303 <= 1
 0 <= x304 <= 1
 0 <= x305 <= 1
 0 <= x306 <= 1
 0 <= x307 <= 1
 0 <= x308 <= 1
 0 <= x309 <= 1
 0 <= x310 <= 1
 0 <= x311 <= 1
 0 <= x312 <= 1
 0 <= x313 <= 1
 0 <= x314 <= 1
 0 <= x315 <= 1
 0 <= x316 <= 1
 0 <= x317 <= 1
 0 <= x318 <= 1
 0 <= x319 <= 1
 0 <= x320 <= 1
 0 <= x321 <= 1
 0 <= x322 <= 1
 0 <= x323 <= 1
 0 <= x324 <= 1
 0 <= x325 <= 1
 0 <= x326 <= 1
 0 <= x327 <= 1
 0 <= x328 <= 1
 0 <= x329 <= 1
 0 <= x330 <= 1
 0 <= x331 <= 1
 0 <= x332 <= 1
 0 <= x333 <= 1
 0 <= x334 <= 1
 0 <= x335 <= 1
 0 <= x336 <= 1
 0 <= x337 <= 1
 0 <= x338 <= 1
 0 <= x339 <= 1
 0 <= x340 <= 1
 0 <= x341 <= 1
 0 <= x342 <= 1
 0 <= x343 <= 1
 0 <= x344 <= 1
 0 <= x345 <= 1
 0 <= x346 <= 1
 0 <= x347 <= 1
 0 <= x348 <= 1
 0 <= x349 <= 1
 0 <= x350 <= 1
 0 <= x351 <= 1
 0 <= x352 <= 1
 0 <= x353 <= 1
 0 <= x354 <= 1
 0 <= x355 <= 1
 0 <= x356 <= 1
 0 <= x357 <= 1
 0 <= x358 <= 1
 0 <= x359 <= 1
 0 <= x360 <= 1
 0 <= x361 <= 1
 0 <= x362 <= 1
 0 <= x363 <= 1
 0 <= x364 <= 1
 0 <= x365 <= 1
 0 <= x366 <= 1
 0 <= x367 <= 1
 0 <= x368 <= 1
 0 <= x369 <= 1
 0 <= x370 <= 1
 0 <= x371 <= 1
 0 <= x372 <= 1
 0 <= x373 <= 1
 0 <= x374 <= 1
 0 <= x375 <= 1
 0 <= x376 <= 1
 0 <= x377 <= 1
 0 <= x378 <= 1
 0 <= x379 <= 1
 0 <= x380 <= 1
 0 <= x381 <= 1
 0 <= x382 <= 1
 0 <= x383 <= 1
 0 <= x384 <= 1
 0 <= x385 <= 1
 0 <= x386 <= 1
 0 <= x387 <= 1
 0 <= x388 <= 1
 0 <= x389 <= 1
 0 <= x390 <= 1
 0 <= x391 <= 1
 0 <= x392 <= 1
 0 <= x393 <= 1
 0 <= x394 <= 1
 0 <= x395 <= 1
 0 <= x396 <= 1
 0 <= x397 <= 1
 0 <= x398 <= 1
 0 <= x399 <= 1
 0 <= x400 <= 1
 0 <= x401 <= 1
 0 <= x402 <= 1
 0 <= x403 <= 1
 0 <= x404 <= 1
 0 <= x405 <= 1
 0 <= x406 <= 1
 0 <= x407 <= 1
 0 <= x408 <= 1
 0 <= x409 <= 1
 0 <= x410 <= 1
 0 <= x411 <= 1
 0 <= x412 <= 1
 0 <= x413 <= 1
 0 <= x414 <= 1
 0 <= x415 <= 1
 0 <= x416 <= 1
 0 <= x417 <= 1
 0 <= x418 <= 1
 0 <= x419 <= 1
 0 <= x420 <= 1
 0 <= x421 <= 1
 0 <= x422 <= 1
 0 <= x423 <= 1
 0 <= x424 <= 1
 0 <= x425 <= 1
 0 <= x426 <= 1
 0 <= x427 <= 1
 0 <= x428 <= 1
 0 <= x429 <= 1
 0 <= x430 <= 1
 0 <= x431 <= 1
 0 <= x432 <= 1
 0 <= x433 <= 1
 0 <= x434 <= 1
 0 <= x435 <= 1
 0 <= x436 <= 1
 0 <= x437 <= 1
 0 <= x438 <= 1
 0 <= x439 <= 1
 0 <= x440 <= 1
 0 <= x441 <= 1
 0 <= x442 <= 1
 0 <= x443 <= 1
 0 <= x444 <= 1
 0 <= x445 <= 1
 0 <= x446 <= 1
 0 <= x447 <= 1
 0 <= x448 <= 1
 0 <= x449 <= 1
 0 <= x450 <= 1
 0 <= x451 <= 1
 0 <= x452 <= 1
 0 <= x453 <= 1
 0 <= x454 <= 1
 0 <= x455 <= 1
 0 <= x456 <= 1
 0 <= x457 <= 1
 0 <= x458 <= 1
 0 <= x459 <= 1
 0 <= x460 <= 1
 0 <= x461 <= 1
 0 <= x462 <= 1
 0 <= x463 <= 1
 0 <= x464 <= 1
 0 <= x465 <= 1
 0 <= x466 <= 1
 0 <= x467 <= 1
 0 <= x468 <= 1
 0 <= x469 <= 1
 0 <= x470 <= 1
 0 <= x471 <= 1
 0 <= x472 <= 1
 0 <= x473 <= 1
 0 <= x474 <= 1
 0 <= x475 <= 1
 0 <= x476 <= 1
 0 <= x477 <= 1
 0 <= x478 <= 1
 0 <= x479 <= 1
 0 <= x480 <= 1
 0 <= x481 <= 1
 0 <= x482 <= 1
 0 <= x483 <= 1
 0 <= x484 <= 1
 0 <= x485 <= 1
 0 <= x486 <= 1
 0 <= x487 <= 1
 0 <= x488 <= 1
 0 <= x489 <= 1
 0 <= x490 <= 1
 0 <= x491 <= 1
 0 <= x492 <= 1
 0 <= x493 <= 1
 0 <= x494 <= 1
 0 <= x495 <= 1
 0 <= x496 <= 1
 0 <= x497 <= 1
 0 <= x498 <= 1
 0 <= x499 <= 1
 0 <= x500 <= 1
 0 <= x501 <= 1
 0 <= x502 <= 1
 0 <= x503 <= 1
 0 <= x504 <= 1
 0 <= x505 <= 1
 0 <= x506 <= 1
 0 <= x507 <= 1
 0 <= x508 <= 1
 0 <= x509 <= 1
 0 <= x510 <= 1
 0 <= x511 <= 1
 0 <= x512 <= 1
 0 <= x513 <= 1
 0 <= x514 <= 1
 0 <= x515 <= 1
 0 <= x516 <= 1
 0 <= x517 <= 1
 0 <= x518 <= 1
 0 <= x519 <= 1
 0 <= x520 <= 1
 0 <= x521 <= 1
 0 <= x522 <= 1
 0 <= x523 <= 1
 0 <= x524 <= 1
 0 <= x525 <= 1
 0 <= x526 <= 1
 0 <= x527 <= 1
 0 <= x528 <= 1
 0 <= x529 <= 1
 0 <= x530 <= 1
 0 <= x531 <= 1
 0 <= x532 <= 1
 0 <= x533 <= 1
 0 <= x534 <= 1
 0 <= x535 <= 1
 0 <= x536 <= 1
 0 <= x537 <= 1
 0 <= x538 <= 1
 0 <= x539 <= 1
 0 <= x540 <= 1
 0 <= x541 <= 1
 0 <= x542 <= 1
 0 <= x543 <= 1
 0 <= x544 <= 1
 0 <= x545 <= 1
 0 <= x546 <= 1
 0 <= x547 <= 1
 0 <= x548 <= 1
 0 <= x549 <= 1
 0 <= x550 <= 1
Binaries
 x501  x502  x503  x504  x505  x506  x507  x508  x509  x510  x511  x512  x513 
 x514  x515  x516  x517  x518  x519  x520  x521  x522  x523  x524  x525  x526 
 x527  x528  x529  x530  x531  x532  x533  x534  x535  x536  x537  x538  x539 
 x540  x541  x542  x543  x544  x545  x546  x547  x548  x549  x550 
End
